56647
4, 30, 47, 34, 53, 54, 26, 49, 55, 28, 3, 6, 13, 43, 40, 7, 37, 51, 5, 35, 24, 20, 50, 38, 8, 44, 41, 32, 19, 48, 17, 21, 23, 29, 22, 10, 16, 39, 46, 36, 15, 52, 42, 33, 1, 27, 25, 31, 11, 45, 2, 14, 9, 18, 12
